time_units_in_minute = 60;
time_unit_count = 60;

light_count = 4;
road_count = 5;
connection_count = 4;
collision_count = 1;

road_capacities = [0, 4, 0, 0, 0];
expected_car_flow = [10, 10, 30, 60];
connection_lights = [| 1, 0, 0
		     | 2, 0, 0
		     | 3, 0, 0
		     | 4, 1, 0 |];
road_connections_in = [| 0, 0, 0
		       | 1, 0, 0
		       | 2, 4, 0
		       | 0, 0, 0
		       | 3, 1, 0 |];
road_connections_out = [| 1, 0, 0
		        | 2, 0, 0
		        | 0, 0, 0
		        | 3, 0, 0
		        | 0, 0, 0 |];
is_collision_important = [1];
collision_connections = [| 2, 3 |]

